SDVRPTW/PR15.vrp
NAME: PR15
COMMENT: Based on Cordeau and Laporte (2001).
TYPE: SDVRPTW
EDGE_WEIGHT_TYPE: EUC_2D
DIMENSION: 241
VEHICLES: 24
VEHICLES_MAX_DURATION: 500
NODE_COORD_SECTION
1	-3.638	16.114
2	-34.686	24.048
3	9.717	-10.956
4	54.742	-41.296
5	51.898	89.935
6	-0.006	24.42
7	7.379	-12.677
8	-56.36	19.299
9	0.604	24.774
10	44.183	55.829
11	-24.292	27.118
12	2.789	54.303
13	57.104	66.65
14	-51.465	30.646
15	47.546	-20.782
16	6.696	32.458
17	41.144	18.518
18	-62.811	59.491
19	20.728	-37.5
20	-59.039	38.422
21	36.731	-50.226
22	-62.03	33.521
23	46.21	17.157
24	27.307	21.722
25	6.403	-18.994
26	20.776	-15.387
27	-53.625	34.863
28	-12.903	37.512
29	-13.123	2.655
30	24.396	51.978
31	78.394	64.496
32	-11.444	69.794
33	-33.502	7.501
34	33.228	-22.797
35	-5.127	-26.282
36	0.305	-79.218
37	24.768	-88.69
38	5.243	-67.346
39	-19.44	50.104
40	19.061	-29.48
41	-10.083	36.786
42	57.715	71.362
43	-47.406	63.544
44	15.79	-17.041
45	70.361	27.753
46	-2.551	51.666
47	-68.878	4.053
48	-19.385	12.677
49	41.693	-93.585
50	28.082	-18.262
51	28.845	-16.473
52	-52.032	26.703
53	-27.356	38.708
54	-34.302	25.995
55	-41.425	78.906
56	24.786	-35.925
57	-22.522	18.536
58	-7.55	23.572
59	-45.129	30.438
60	-33.136	30.731
61	-31.482	9.351
62	9.686	7.294
63	43.884	-23.669
64	49.188	59.29
65	-39.551	-10.968
66	-96.521	45.508
67	-59.076	41.669
68	-68.811	4.315
69	10.51	19.092
70	40.82	65.723
71	28.833	-57.672
72	29.303	-49.371
73	-6.238	-52.02
74	-75.037	46.448
75	-57.495	13.574
76	-15.704	13.94
77	36.322	71.411
78	39.429	30.835
79	-93.097	84.552
80	45.367	-8.905
81	96.985	-19.165
82	-53.088	53.79
83	-23.102	61.108
84	28.4	-35.272
85	-31.11	-51.361
86	82.385	46.893
87	-19.629	0.769
88	13.965	91.473
89	-87.347	5.078
90	-27.386	-58.612
91	-39.404	54.022
92	7.391	-32.019
93	54.401	29.81
94	28.65	63.91
95	1.117	-56.006
96	14.471	14.288
97	-17.572	-79.858
98	-20.978	-34.015
99	81.104	94.263
100	1.19	56.055
101	21.112	-47.125
102	75.848	86.322
103	7.88	-5.75
104	-69.318	28.619
105	10.931	-29.095
106	-22.272	-1.086
107	32.77	29.266
108	11.786	15.375
109	10.645	6.067
110	3.345	17.041
111	5.615	-87.604
112	20.49	-30.389
113	2.661	66.876
114	14.752	22.925
115	25.201	-47.119
116	-16.949	67.664
117	-28.986	28.894
118	35.413	-48.401
119	-29.62	72.046
120	-31.281	-15.088
121	-46.46	48.151
122	56.378	-25.14
123	30.255	-25.458
124	-54.669	25.677
125	-61.542	35.144
126	32.532	-18.872
127	-92.487	-22.693
128	70.404	-72.443
129	8.783	-69.36
130	26.794	57.44
131	6.421	62.018
132	-99.67	11.475
133	-44.159	41.98
134	-55.664	39.05
135	-43.549	30.188
136	38.019	-18.427
137	31.653	63.483
138	26.068	-10.266
139	-73.022	25.958
140	-41.949	22.791
141	6.207	44.769
142	25.104	78.876
143	34.998	16.058
144	-43.262	8.588
145	-12.598	48.462
146	-15.387	67.053
147	-8.099	40.924
148	-33.551	34.43
149	28.937	-22.119
150	78.638	-8.209
151	51.001	45.77
152	49.2	20.63
153	-41.656	51.086
154	19.69	-28.058
155	56.927	15.271
156	28.503	-6.47
157	-1.367	-9.375
158	-81.995	-2.673
159	-24.945	-41.241
160	-86.847	69.415
161	46.558	15.57
162	-85.394	44.781
163	-7.013	53.424
164	-26.52	62.097
165	-81.604	30.64
166	82.147	44.208
167	17.316	-35.895
168	48.181	22.577
169	-31.11	16.931
170	-43.066	16.962
171	-11.42	-25.311
172	29.364	-51.721
173	55.597	-65.259
174	29.919	-46.252
175	17.883	-68.549
176	-89.935	64.575
177	7.159	-28.467
178	-0.745	-38.892
179	73.029	-66.461
180	11.572	-44.574
181	15.71	34.839
182	29.022	-40.002
183	67.542	32.446
184	5.292	-51.556
185	-74.139	9.161
186	-51.196	40.833
187	-67.139	19.141
188	-30.927	-11.401
189	-44.891	-23.718
190	-79.999	60.114
191	-44.556	19.623
192	27.057	8.679
193	-61.267	59.912
194	-56.812	45.544
195	19.965	-44.22
196	-69.049	62.891
197	-7.928	97.266
198	20.404	44.513
199	42.505	-14.215
200	33.752	32.294
201	17.975	32.782
202	52.118	21.033
203	-26.489	43.903
204	37.103	53.345
205	72.357	62.03
206	-53.674	48.523
207	-97.9	67.92
208	-69.232	35.602
209	-27.686	-26.093
210	16.37	-15.546
211	42.493	-51.324
212	-54.779	35.907
213	-12.848	51.459
214	57.916	18.445
215	43.469	-98.682
216	10.449	-42.487
217	-8.252	37.714
218	68.695	-30.06
219	31.604	-53.21
220	-49.097	5.194
221	-1.782	-45.105
222	27.814	-24.841
223	-1.111	8.301
224	16.614	-30.084
225	-54.858	56.482
226	-65.692	41.821
227	-73.962	74.353
228	-10.944	82.013
229	13.953	-25.842
230	-88.318	31.061
231	-48.724	50.22
232	-21.863	75.83
233	-19.391	-40.826
234	-21.112	42.914
235	46.967	34.076
236	55.475	40.869
237	25.33	47.449
238	54.816	-6.958
239	33.441	-40.125
240	9.705	-35.016
241	1.617	-72.998
DEMAND_SECTION
1	0
2	24
3	18
4	15
5	18
6	7
7	1
8	17
9	7
10	5
11	16
12	8
13	8
14	21
15	9
16	18
17	6
18	23
19	9
20	14
21	5
22	22
23	11
24	21
25	19
26	15
27	13
28	4
29	19
30	24
31	19
32	7
33	17
34	18
35	24
36	2
37	25
38	8
39	21
40	7
41	5
42	14
43	15
44	2
45	5
46	1
47	3
48	23
49	10
50	23
51	12
52	10
53	6
54	4
55	25
56	19
57	8
58	21
59	1
60	11
61	4
62	23
63	12
64	6
65	17
66	21
67	20
68	24
69	25
70	21
71	25
72	7
73	14
74	17
75	3
76	3
77	9
78	16
79	21
80	11
81	12
82	4
83	8
84	13
85	6
86	10
87	4
88	23
89	13
90	22
91	12
92	19
93	22
94	22
95	24
96	10
97	19
98	9
99	16
100	23
101	19
102	14
103	6
104	25
105	20
106	1
107	14
108	22
109	1
110	20
111	13
112	16
113	24
114	9
115	25
116	18
117	6
118	22
119	22
120	2
121	8
122	15
123	20
124	19
125	7
126	22
127	7
128	15
129	19
130	4
131	10
132	14
133	4
134	25
135	12
136	24
137	3
138	18
139	25
140	19
141	3
142	18
143	9
144	20
145	23
146	13
147	6
148	13
149	12
150	24
151	14
152	18
153	16
154	9
155	6
156	4
157	4
158	16
159	22
160	1
161	2
162	18
163	22
164	3
165	3
166	24
167	14
168	22
169	11
170	14
171	13
172	12
173	10
174	12
175	22
176	10
177	6
178	4
179	11
180	14
181	20
182	5
183	4
184	14
185	21
186	21
187	23
188	2
189	13
190	18
191	16
192	10
193	25
194	18
195	17
196	19
197	25
198	24
199	20
200	6
201	24
202	25
203	10
204	19
205	7
206	11
207	21
208	24
209	1
210	23
211	10
212	21
213	17
214	13
215	6
216	22
217	14
218	13
219	15
220	17
221	6
222	18
223	12
224	11
225	6
226	2
227	16
228	22
229	7
230	15
231	16
232	25
233	2
234	18
235	3
236	5
237	16
238	10
239	15
240	14
241	1
SERVICE_TIME_SECTION
1	0
2	1
3	12
4	20
5	5
6	10
7	12
8	19
9	8
10	18
11	25
12	23
13	3
14	21
15	5
16	1
17	15
18	9
19	19
20	13
21	24
22	7
23	8
24	12
25	13
26	25
27	23
28	20
29	8
30	5
31	19
32	24
33	4
34	13
35	15
36	15
37	21
38	21
39	24
40	18
41	13
42	4
43	11
44	4
45	25
46	13
47	17
48	14
49	15
50	19
51	10
52	23
53	19
54	25
55	21
56	5
57	4
58	22
59	9
60	19
61	11
62	14
63	12
64	11
65	3
66	17
67	2
68	1
69	5
70	11
71	7
72	19
73	22
74	2
75	10
76	20
77	8
78	21
79	20
80	18
81	23
82	8
83	15
84	24
85	16
86	24
87	11
88	19
89	21
90	6
91	6
92	23
93	10
94	16
95	23
96	25
97	19
98	8
99	2
100	6
101	20
102	5
103	13
104	3
105	18
106	9
107	17
108	18
109	11
110	9
111	5
112	16
113	19
114	9
115	5
116	11
117	15
118	24
119	19
120	6
121	10
122	20
123	23
124	22
125	5
126	21
127	7
128	14
129	22
130	15
131	7
132	10
133	12
134	8
135	11
136	2
137	7
138	12
139	24
140	15
141	11
142	2
143	17
144	18
145	11
146	17
147	15
148	8
149	4
150	9
151	18
152	10
153	2
154	22
155	2
156	17
157	23
158	21
159	14
160	9
161	22
162	18
163	17
164	5
165	25
166	22
167	1
168	11
169	14
170	9
171	5
172	18
173	4
174	8
175	6
176	25
177	3
178	9
179	5
180	16
181	3
182	6
183	23
184	2
185	24
186	18
187	7
188	24
189	21
190	2
191	7
192	23
193	24
194	3
195	16
196	13
197	25
198	14
199	17
200	11
201	1
202	22
203	11
204	6
205	18
206	19
207	10
208	17
209	17
210	7
211	22
212	4
213	4
214	9
215	12
216	5
217	15
218	22
219	5
220	17
221	24
222	15
223	4
224	5
225	1
226	2
227	1
228	8
229	16
230	7
231	7
232	17
233	13
234	8
235	25
236	22
237	12
238	23
239	7
240	20
241	12
TIME_WINDOW_SECTION
1	0	1000
2	240	560
3	199	396
4	156	436
5	140	411
6	196	516
7	142	333
8	149	393
9	161	451
10	290	546
11	269	533
12	212	476
13	87	307
14	117	460
15	285	519
16	259	506
17	101	287
18	131	388
19	84	432
20	287	633
21	187	536
22	233	537
23	249	472
24	83	410
25	190	473
26	123	350
27	240	513
28	229	569
29	207	510
30	231	563
31	269	514
32	66	298
33	115	377
34	83	330
35	152	399
36	83	362
37	138	429
38	136	320
39	163	475
40	297	569
41	72	339
42	88	281
43	66	372
44	181	388
45	280	618
46	164	463
47	147	490
48	112	334
49	133	472
50	92	344
51	188	476
52	271	614
53	140	411
54	88	425
55	200	514
56	112	308
57	97	312
58	251	432
59	294	646
60	86	416
61	195	423
62	290	527
63	157	401
64	89	354
65	64	271
66	296	480
67	61	294
68	159	461
69	65	346
70	172	362
71	278	625
72	74	329
73	277	551
74	102	450
75	114	418
76	226	539
77	283	513
78	163	428
79	139	430
80	192	458
81	260	448
82	257	519
83	201	488
84	279	600
85	226	530
86	134	332
87	159	414
88	269	554
89	105	329
90	233	490
91	237	555
92	181	521
93	120	357
94	203	478
95	255	443
96	161	512
97	78	320
98	158	456
99	161	359
100	226	468
101	178	500
102	105	331
103	167	493
104	87	430
105	237	438
106	180	505
107	258	534
108	277	550
109	202	516
110	248	534
111	270	536
112	236	561
113	275	596
114	84	315
115	296	637
116	94	402
117	160	466
118	116	384
119	226	437
120	139	481
121	93	428
122	99	295
123	93	417
124	141	335
125	269	612
126	282	549
127	271	491
128	199	413
129	130	321
130	265	574
131	85	359
132	242	504
133	133	358
134	100	369
135	106	294
136	100	337
137	254	463
138	290	473
139	221	554
140	145	371
141	263	463
142	191	507
143	189	376
144	97	358
145	87	421
146	112	303
147	288	646
148	93	336
149	259	481
150	135	435
151	139	397
152	147	349
153	63	364
154	235	423
155	245	501
156	199	548
157	89	381
158	241	542
159	274	486
160	238	446
161	71	397
162	137	342
163	68	389
164	290	544
165	185	438
166	199	404
167	257	583
168	240	510
169	269	455
170	279	524
171	88	401
172	239	462
173	93	398
174	124	344
175	144	385
176	232	432
177	210	486
178	276	543
179	111	445
180	298	631
181	240	508
182	174	489
183	237	438
184	119	452
185	138	467
186	189	524
187	237	504
188	223	492
189	105	381
190	152	350
191	214	522
192	193	431
193	113	402
194	129	372
195	224	517
196	87	288
197	233	448
198	84	276
199	177	496
200	270	593
201	103	396
202	114	323
203	62	389
204	131	356
205	158	397
206	61	374
207	264	611
208	256	440
209	73	357
210	156	467
211	298	655
212	129	465
213	178	390
214	95	341
215	259	555
216	239	449
217	78	431
218	108	395
219	213	456
220	204	433
221	245	465
222	207	435
223	158	358
224	99	397
225	107	461
226	240	474
227	66	296
228	196	552
229	292	485
230	277	575
231	266	464
232	76	263
233	178	418
234	125	345
235	226	438
236	229	510
237	84	324
238	133	412
239	80	412
240	143	483
241	190	415
CAPACITY_SECTION
1	100
2	100
3	100
4	100
5	100
6	100
7	150
8	150
9	150
10	150
11	150
12	150
13	200
14	200
15	200
16	200
17	200
18	200
19	250
20	250
21	250
22	250
23	250
24	250
VEHICLES_ALLOWED_CLIENTS_SECTION
1	2	3	4	5	6	7	8	9	10	11	12	13	14	15	16	17	18	19	20	21	22	23	24	25	26	27	28	29	30	31	32	33	34	35	36	37	38	39	40	41	42	43	44	45	46	47	48	49	50	51	52	53	54	55	56	57	58	59	60	61	63	64	65	68	70	75	77	78	83	84	86	87	90	92	94	96	98	101	104	106	108	113	117	119	120	123	125	126	127	129	130	132	134	135	140	141	142	143	144	149	150	154	156	157	159	161	165	166	168	171	174	175	176	178	179	182	187	189	193	199	201	202	204	211	213	214	217	218	230	231	233	234	238	240
2	2	3	4	5	6	7	8	9	10	11	12	13	14	15	16	17	18	19	20	21	22	23	24	25	26	27	28	29	30	31	32	33	34	35	36	37	38	39	40	41	42	43	44	45	46	47	48	49	50	51	52	53	54	55	56	57	58	59	60	61	63	64	65	68	70	75	77	78	83	84	86	87	90	92	94	96	98	101	104	106	108	113	117	119	120	123	125	126	127	129	130	132	134	135	140	141	142	143	144	149	150	154	156	157	159	161	165	166	168	171	174	175	176	178	179	182	187	189	193	199	201	202	204	211	213	214	217	218	230	231	233	234	238	240
3	2	3	4	5	6	7	8	9	10	11	12	13	14	15	16	17	18	19	20	21	22	23	24	25	26	27	28	29	30	31	32	33	34	35	36	37	38	39	40	41	42	43	44	45	46	47	48	49	50	51	52	53	54	55	56	57	58	59	60	61	63	64	65	68	70	75	77	78	83	84	86	87	90	92	94	96	98	101	104	106	108	113	117	119	120	123	125	126	127	129	130	132	134	135	140	141	142	143	144	149	150	154	156	157	159	161	165	166	168	171	174	175	176	178	179	182	187	189	193	199	201	202	204	211	213	214	217	218	230	231	233	234	238	240
4	2	3	4	5	6	7	8	9	10	11	12	13	14	15	16	17	18	19	20	21	22	23	24	25	26	27	28	29	30	31	32	33	34	35	36	37	38	39	40	41	42	43	44	45	46	47	48	49	50	51	52	53	54	55	56	57	58	59	60	61	63	64	65	68	70	75	77	78	83	84	86	87	90	92	94	96	98	101	104	106	108	113	117	119	120	123	125	126	127	129	130	132	134	135	140	141	142	143	144	149	150	154	156	157	159	161	165	166	168	171	174	175	176	178	179	182	187	189	193	199	201	202	204	211	213	214	217	218	230	231	233	234	238	240
5	2	3	4	5	6	7	8	9	10	11	12	13	14	15	16	17	18	19	20	21	22	23	24	25	26	27	28	29	30	31	32	33	34	35	36	37	38	39	40	41	42	43	44	45	46	47	48	49	50	51	52	53	54	55	56	57	58	59	60	61	63	64	65	68	70	75	77	78	83	84	86	87	90	92	94	96	98	101	104	106	108	113	117	119	120	123	125	126	127	129	130	132	134	135	140	141	142	143	144	149	150	154	156	157	159	161	165	166	168	171	174	175	176	178	179	182	187	189	193	199	201	202	204	211	213	214	217	218	230	231	233	234	238	240
6	2	3	4	5	6	7	8	9	10	11	12	13	14	15	16	17	18	19	20	21	22	23	24	25	26	27	28	29	30	31	32	33	34	35	36	37	38	39	40	41	42	43	44	45	46	47	48	49	50	51	52	53	54	55	56	57	58	59	60	61	63	64	65	68	70	75	77	78	83	84	86	87	90	92	94	96	98	101	104	106	108	113	117	119	120	123	125	126	127	129	130	132	134	135	140	141	142	143	144	149	150	154	156	157	159	161	165	166	168	171	174	175	176	178	179	182	187	189	193	199	201	202	204	211	213	214	217	218	230	231	233	234	238	240
7	2	3	4	5	6	7	8	9	10	11	12	13	14	15	16	17	18	19	20	21	22	23	24	25	26	27	28	29	30	31	32	33	34	35	36	37	38	39	40	41	42	43	44	45	46	47	48	49	50	51	52	53	54	55	56	57	58	59	60	61	65	67	69	70	71	74	75	76	80	83	84	85	87	88	89	90	91	93	94	95	96	97	99	102	104	106	107	108	109	110	111	116	120	122	123	124	125	126	128	129	131	134	140	145	147	150	151	152	153	154	155	156	157	158	159	160	164	165	168	170	171	172	173	174	175	176	178	180	190	191	196	197	198	200	205	207	210	212	221	222	224	225	226	227	228	239	241
8	2	3	4	5	6	7	8	9	10	11	12	13	14	15	16	17	18	19	20	21	22	23	24	25	26	27	28	29	30	31	32	33	34	35	36	37	38	39	40	41	42	43	44	45	46	47	48	49	50	51	52	53	54	55	56	57	58	59	60	61	65	67	69	70	71	74	75	76	80	83	84	85	87	88	89	90	91	93	94	95	96	97	99	102	104	106	107	108	109	110	111	116	120	122	123	124	125	126	128	129	131	134	140	145	147	150	151	152	153	154	155	156	157	158	159	160	164	165	168	170	171	172	173	174	175	176	178	180	190	191	196	197	198	200	205	207	210	212	221	222	224	225	226	227	228	239	241
9	2	3	4	5	6	7	8	9	10	11	12	13	14	15	16	17	18	19	20	21	22	23	24	25	26	27	28	29	30	31	32	33	34	35	36	37	38	39	40	41	42	43	44	45	46	47	48	49	50	51	52	53	54	55	56	57	58	59	60	61	65	67	69	70	71	74	75	76	80	83	84	85	87	88	89	90	91	93	94	95	96	97	99	102	104	106	107	108	109	110	111	116	120	122	123	124	125	126	128	129	131	134	140	145	147	150	151	152	153	154	155	156	157	158	159	160	164	165	168	170	171	172	173	174	175	176	178	180	190	191	196	197	198	200	205	207	210	212	221	222	224	225	226	227	228	239	241
10	2	3	4	5	6	7	8	9	10	11	12	13	14	15	16	17	18	19	20	21	22	23	24	25	26	27	28	29	30	31	32	33	34	35	36	37	38	39	40	41	42	43	44	45	46	47	48	49	50	51	52	53	54	55	56	57	58	59	60	61	65	67	69	70	71	74	75	76	80	83	84	85	87	88	89	90	91	93	94	95	96	97	99	102	104	106	107	108	109	110	111	116	120	122	123	124	125	126	128	129	131	134	140	145	147	150	151	152	153	154	155	156	157	158	159	160	164	165	168	170	171	172	173	174	175	176	178	180	190	191	196	197	198	200	205	207	210	212	221	222	224	225	226	227	228	239	241
11	2	3	4	5	6	7	8	9	10	11	12	13	14	15	16	17	18	19	20	21	22	23	24	25	26	27	28	29	30	31	32	33	34	35	36	37	38	39	40	41	42	43	44	45	46	47	48	49	50	51	52	53	54	55	56	57	58	59	60	61	65	67	69	70	71	74	75	76	80	83	84	85	87	88	89	90	91	93	94	95	96	97	99	102	104	106	107	108	109	110	111	116	120	122	123	124	125	126	128	129	131	134	140	145	147	150	151	152	153	154	155	156	157	158	159	160	164	165	168	170	171	172	173	174	175	176	178	180	190	191	196	197	198	200	205	207	210	212	221	222	224	225	226	227	228	239	241
12	2	3	4	5	6	7	8	9	10	11	12	13	14	15	16	17	18	19	20	21	22	23	24	25	26	27	28	29	30	31	32	33	34	35	36	37	38	39	40	41	42	43	44	45	46	47	48	49	50	51	52	53	54	55	56	57	58	59	60	61	65	67	69	70	71	74	75	76	80	83	84	85	87	88	89	90	91	93	94	95	96	97	99	102	104	106	107	108	109	110	111	116	120	122	123	124	125	126	128	129	131	134	140	145	147	150	151	152	153	154	155	156	157	158	159	160	164	165	168	170	171	172	173	174	175	176	178	180	190	191	196	197	198	200	205	207	210	212	221	222	224	225	226	227	228	239	241
13	2	3	4	5	6	7	8	9	10	11	12	13	14	15	16	17	18	19	20	21	22	23	24	25	26	27	28	29	30	31	32	33	34	35	36	37	38	39	40	41	42	43	44	45	46	47	48	49	50	51	52	53	54	55	56	57	58	59	60	61	62	66	67	69	71	72	73	74	76	79	80	81	82	85	88	89	91	93	95	97	99	100	102	103	105	107	109	110	111	112	114	115	116	118	121	122	124	128	131	133	136	137	138	139	145	146	147	148	151	152	153	155	158	160	162	163	164	167	169	170	172	173	177	180	181	195	203	206	208	215	219	223	232	236	237
14	2	3	4	5	6	7	8	9	10	11	12	13	14	15	16	17	18	19	20	21	22	23	24	25	26	27	28	29	30	31	32	33	34	35	36	37	38	39	40	41	42	43	44	45	46	47	48	49	50	51	52	53	54	55	56	57	58	59	60	61	62	66	67	69	71	72	73	74	76	79	80	81	82	85	88	89	91	93	95	97	99	100	102	103	105	107	109	110	111	112	114	115	116	118	121	122	124	128	131	133	136	137	138	139	145	146	147	148	151	152	153	155	158	160	162	163	164	167	169	170	172	173	177	180	181	195	203	206	208	215	219	223	232	236	237
15	2	3	4	5	6	7	8	9	10	11	12	13	14	15	16	17	18	19	20	21	22	23	24	25	26	27	28	29	30	31	32	33	34	35	36	37	38	39	40	41	42	43	44	45	46	47	48	49	50	51	52	53	54	55	56	57	58	59	60	61	62	66	67	69	71	72	73	74	76	79	80	81	82	85	88	89	91	93	95	97	99	100	102	103	105	107	109	110	111	112	114	115	116	118	121	122	124	128	131	133	136	137	138	139	145	146	147	148	151	152	153	155	158	160	162	163	164	167	169	170	172	173	177	180	181	195	203	206	208	215	219	223	232	236	237
16	2	3	4	5	6	7	8	9	10	11	12	13	14	15	16	17	18	19	20	21	22	23	24	25	26	27	28	29	30	31	32	33	34	35	36	37	38	39	40	41	42	43	44	45	46	47	48	49	50	51	52	53	54	55	56	57	58	59	60	61	62	66	67	69	71	72	73	74	76	79	80	81	82	85	88	89	91	93	95	97	99	100	102	103	105	107	109	110	111	112	114	115	116	118	121	122	124	128	131	133	136	137	138	139	145	146	147	148	151	152	153	155	158	160	162	163	164	167	169	170	172	173	177	180	181	195	203	206	208	215	219	223	232	236	237
17	2	3	4	5	6	7	8	9	10	11	12	13	14	15	16	17	18	19	20	21	22	23	24	25	26	27	28	29	30	31	32	33	34	35	36	37	38	39	40	41	42	43	44	45	46	47	48	49	50	51	52	53	54	55	56	57	58	59	60	61	62	66	67	69	71	72	73	74	76	79	80	81	82	85	88	89	91	93	95	97	99	100	102	103	105	107	109	110	111	112	114	115	116	118	121	122	124	128	131	133	136	137	138	139	145	146	147	148	151	152	153	155	158	160	162	163	164	167	169	170	172	173	177	180	181	195	203	206	208	215	219	223	232	236	237
18	2	3	4	5	6	7	8	9	10	11	12	13	14	15	16	17	18	19	20	21	22	23	24	25	26	27	28	29	30	31	32	33	34	35	36	37	38	39	40	41	42	43	44	45	46	47	48	49	50	51	52	53	54	55	56	57	58	59	60	61	62	66	67	69	71	72	73	74	76	79	80	81	82	85	88	89	91	93	95	97	99	100	102	103	105	107	109	110	111	112	114	115	116	118	121	122	124	128	131	133	136	137	138	139	145	146	147	148	151	152	153	155	158	160	162	163	164	167	169	170	172	173	177	180	181	195	203	206	208	215	219	223	232	236	237
19	2	3	4	5	6	7	8	9	10	11	12	13	14	15	16	17	18	19	20	21	22	23	24	25	26	27	28	29	30	31	32	33	34	35	36	37	38	39	40	41	42	43	44	45	46	47	48	49	50	51	52	53	54	55	56	57	58	59	60	61	62	63	64	66	68	72	73	77	78	79	81	82	86	92	98	100	101	103	105	112	113	114	115	117	118	119	121	127	130	132	133	135	136	137	138	139	141	142	143	144	146	148	149	161	162	163	166	167	169	177	179	181	183	184	185	186	188	192	194	209	216	220	229	235
20	2	3	4	5	6	7	8	9	10	11	12	13	14	15	16	17	18	19	20	21	22	23	24	25	26	27	28	29	30	31	32	33	34	35	36	37	38	39	40	41	42	43	44	45	46	47	48	49	50	51	52	53	54	55	56	57	58	59	60	61	62	63	64	66	68	72	73	77	78	79	81	82	86	92	98	100	101	103	105	112	113	114	115	117	118	119	121	127	130	132	133	135	136	137	138	139	141	142	143	144	146	148	149	161	162	163	166	167	169	177	179	181	183	184	185	186	188	192	194	209	216	220	229	235
21	2	3	4	5	6	7	8	9	10	11	12	13	14	15	16	17	18	19	20	21	22	23	24	25	26	27	28	29	30	31	32	33	34	35	36	37	38	39	40	41	42	43	44	45	46	47	48	49	50	51	52	53	54	55	56	57	58	59	60	61	62	63	64	66	68	72	73	77	78	79	81	82	86	92	98	100	101	103	105	112	113	114	115	117	118	119	121	127	130	132	133	135	136	137	138	139	141	142	143	144	146	148	149	161	162	163	166	167	169	177	179	181	183	184	185	186	188	192	194	209	216	220	229	235
22	2	3	4	5	6	7	8	9	10	11	12	13	14	15	16	17	18	19	20	21	22	23	24	25	26	27	28	29	30	31	32	33	34	35	36	37	38	39	40	41	42	43	44	45	46	47	48	49	50	51	52	53	54	55	56	57	58	59	60	61	62	63	64	66	68	72	73	77	78	79	81	82	86	92	98	100	101	103	105	112	113	114	115	117	118	119	121	127	130	132	133	135	136	137	138	139	141	142	143	144	146	148	149	161	162	163	166	167	169	177	179	181	183	184	185	186	188	192	194	209	216	220	229	235
23	2	3	4	5	6	7	8	9	10	11	12	13	14	15	16	17	18	19	20	21	22	23	24	25	26	27	28	29	30	31	32	33	34	35	36	37	38	39	40	41	42	43	44	45	46	47	48	49	50	51	52	53	54	55	56	57	58	59	60	61	62	63	64	66	68	72	73	77	78	79	81	82	86	92	98	100	101	103	105	112	113	114	115	117	118	119	121	127	130	132	133	135	136	137	138	139	141	142	143	144	146	148	149	161	162	163	166	167	169	177	179	181	183	184	185	186	188	192	194	209	216	220	229	235
24	2	3	4	5	6	7	8	9	10	11	12	13	14	15	16	17	18	19	20	21	22	23	24	25	26	27	28	29	30	31	32	33	34	35	36	37	38	39	40	41	42	43	44	45	46	47	48	49	50	51	52	53	54	55	56	57	58	59	60	61	62	63	64	66	68	72	73	77	78	79	81	82	86	92	98	100	101	103	105	112	113	114	115	117	118	119	121	127	130	132	133	135	136	137	138	139	141	142	143	144	146	148	149	161	162	163	166	167	169	177	179	181	183	184	185	186	188	192	194	209	216	220	229	235
EOF
