SDVRPTW/PR15.sol
Route #1: 6 91 239 232 158 170 34 156
Route #2: 198 237 149 217 178 210 20 181
Route #3: 216 45 212 233 192 230 116
Route #4: 200 203 201 213 160 16 142
Route #5: 86 105 119 64 188 126 131 229 164 186
Route #6:
Route #7: 93 69 4 98 101 30 204 44 167 199
Route #8: 108 209 43 153 83 221 122 125 155 95 107
Route #9: 224 195 226 159 206 175 189 225 124 133 211 53
Route #10: 223 238 173 174 128 37 240 35 96 89 84 220 177
Route #11: 56 139 123 103 88 157 74 7 190 169
Route #12: 8 197 130 87 196 227 82 38 146 27
Route #13: 68 113 236 150 235 92 154 151 22 106 23 109
Route #14: 40 144 162 31 145 115 231 163 90 152 202 52 10 57
Route #15: 18 55 71 117 172 127 214 48 36 110 94 72
Route #16: 147 120 205 66 17 78 65 161 73 207 51 168 75
Route #17: 222 79 121 80 3 218 70 171 114 194 179 111 39
Route #18:
Route #19: 63 12 41 85 165 182 234 77 9 76 141 136 129 29 180
Route #20: 59 134 132 185 193 81 42 54 118 112 99 11 140 15 5
Route #21: 47 60 32 143 219 46 67 184 138 21 19 26 13 58 1
Route #22: 28 187 208 97 183 215 100 166 228 104 176 24
Route #23: 102 2 25 148 33 62 14 135 49 50 137 191 61
Route #24:
Cost: 4609416
